* ENCODING=ISO-8859-1
NAME          CPLEX
ROWS
 N  obj1    
 G  c1      
 G  c2      
 G  c3      
 G  c4      
 G  c5      
 G  c6      
 G  c7      
 G  c8      
 G  c9      
 G  c10     
 G  c11     
 G  c12     
 G  c13     
 G  c14     
 G  c15     
 G  c16     
 G  c17     
 G  c18     
 G  c19     
 G  c20     
 G  c21     
 G  c22     
 G  c23     
 G  c24     
 G  c25     
 G  c26     
 G  c27     
 G  c28     
 G  c29     
 G  c30     
 G  c31     
 G  c32     
 G  c33     
 G  c34     
 G  c35     
 G  c36     
 G  c37     
 G  c38     
 G  c39     
 G  c40     
 G  c41     
 G  c42     
 G  c43     
 G  c44     
 G  c45     
 G  c46     
 G  c47     
 G  c48     
 G  c49     
 G  c50     
 G  c51     
 G  c52     
 G  c53     
 G  c54     
 G  c55     
 G  c56     
 G  c57     
 G  c58     
 G  c59     
 G  c60     
COLUMNS
    MARK0000  'MARKER'                 'INTORG'
    x1        obj1                            1
    x1        c1                            978
    x1        c21                           554
    x1        c26                           879
    x1        c44                           193
    x1        c47                           818
    x2        obj1                            1
    x2        c1                            568
    x2        c12                           710
    x2        c13                           926
    x2        c14                           610
    x2        c19                           286
    x2        c32                           107
    x2        c42                           654
    x2        c44                           615
    x2        c45                           604
    x2        c60                           643
    x3        obj1                            1
    x3        c15                           998
    x3        c16                           427
    x3        c17                           109
    x3        c18                           187
    x3        c20                           975
    x3        c23                           969
    x3        c54                           657
    x4        obj1                            1
    x4        c11                           210
    x4        c15                           993
    x4        c16                           572
    x4        c28                           462
    x4        c42                           301
    x4        c56                           498
    x4        c57                           119
    x5        obj1                            1
    x5        c17                           625
    x5        c24                           486
    x5        c27                           930
    x5        c39                           196
    x5        c45                           411
    x6        obj1                            1
    x6        c3                            714
    x6        c11                           287
    x6        c17                           370
    x6        c26                           429
    x6        c47                           431
    x7        obj1                            1
    x7        c2                            797
    x7        c11                           553
    x7        c19                           834
    x7        c22                           675
    x7        c30                           784
    x7        c42                           612
    x7        c45                           778
    x7        c57                           578
    x8        obj1                            1
    x8        c18                           906
    x8        c39                           720
    x8        c42                           238
    x8        c45                           841
    x8        c58                           708
    x9        obj1                            1
    x9        c2                            632
    x9        c21                           980
    x9        c37                           542
    x9        c49                           486
    x9        c55                           546
    x10       obj1                            1
    x10       c32                           237
    x10       c50                           440
    x10       c54                           623
    x11       obj1                            1
    x11       c5                            513
    x11       c12                           422
    x11       c22                           810
    x11       c25                           895
    x11       c39                           144
    x11       c46                           232
    x12       obj1                            1
    x12       c1                            117
    x12       c6                            360
    x12       c7                            499
    x12       c26                           266
    x12       c39                           744
    x13       obj1                            1
    x13       c52                           305
    x14       obj1                            1
    x14       c3                            646
    x14       c16                           482
    x14       c19                           855
    x14       c45                           831
    x14       c53                           927
    x15       obj1                            1
    x15       c20                           398
    x15       c31                           958
    x15       c38                           761
    x16       obj1                            1
    x16       c16                           854
    x16       c30                           526
    x16       c38                           398
    x16       c46                           964
    x16       c55                           974
    x17       obj1                            1
    x17       c29                           366
    x17       c30                           256
    x18       obj1                            1
    x18       c15                           686
    x18       c20                           786
    x18       c23                           424
    x18       c28                           463
    x18       c42                           285
    x18       c50                           957
    x19       obj1                            1
    x19       c9                            739
    x19       c17                           268
    x19       c27                           143
    x19       c46                           115
    x19       c47                           141
    x19       c54                           720
    x19       c58                           701
    x20       obj1                            1
    x20       c23                           927
    x20       c32                           759
    x20       c58                           741
    x21       obj1                            1
    x21       c7                            138
    x21       c19                           898
    x21       c25                           454
    x21       c59                           325
    x22       obj1                            1
    x22       c28                           856
    x22       c37                           568
    x22       c55                           593
    x22       c56                           497
    x23       obj1                            1
    x23       c1                            460
    x23       c5                            680
    x23       c12                           116
    x23       c30                           245
    x24       obj1                            1
    x24       c26                           121
    x24       c27                           391
    x24       c28                           576
    x24       c32                           404
    x24       c35                           990
    x24       c38                           586
    x24       c58                           839
    x25       obj1                            1
    x25       c6                            374
    x25       c20                           673
    x25       c32                           464
    x25       c38                           293
    x26       obj1                            1
    x26       c23                           647
    x26       c35                           527
    x27       obj1                            1
    x27       c1                            919
    x27       c7                            725
    x27       c9                            720
    x27       c10                           467
    x27       c11                           227
    x27       c24                           402
    x27       c30                           780
    x27       c32                           955
    x27       c34                           809
    x27       c47                           342
    x28       obj1                            1
    x28       c8                            872
    x28       c10                           934
    x28       c28                           193
    x28       c43                           201
    x28       c50                           463
    x29       obj1                            1
    x29       c12                           775
    x29       c17                           375
    x29       c30                           805
    x29       c45                           188
    x30       obj1                            1
    x30       c11                           656
    x30       c19                           887
    x30       c34                           915
    x30       c35                           973
    x30       c47                           418
    x31       obj1                            1
    x31       c6                            550
    x31       c8                            365
    x31       c38                           773
    x31       c59                           773
    x32       obj1                            1
    x32       c11                           305
    x32       c14                           566
    x32       c29                           743
    x32       c30                           898
    x32       c32                           729
    x32       c35                           751
    x32       c36                           660
    x32       c37                           963
    x32       c42                           981
    x32       c55                           504
    x32       c58                           732
    x33       obj1                            1
    x33       c4                            971
    x33       c9                            168
    x33       c16                           666
    x33       c22                           807
    x33       c53                           524
    x34       obj1                            1
    x34       c7                            451
    x34       c12                           386
    x34       c18                           383
    x34       c27                           970
    x34       c39                           646
    x34       c47                           481
    x34       c58                           640
    x34       c59                           754
    x35       obj1                            1
    x35       c2                            594
    x35       c17                           335
    x35       c31                           939
    x35       c33                           447
    x35       c42                           481
    x35       c46                           604
    x35       c49                           790
    x36       obj1                            1
    x36       c11                           150
    x36       c17                           744
    x36       c19                           767
    x36       c28                           272
    x36       c56                           506
    x37       obj1                            1
    x37       c14                           930
    x37       c51                           483
    x37       c54                           485
    x37       c60                           219
    x38       obj1                            1
    x38       c9                            216
    x38       c18                           886
    x38       c25                           756
    x38       c42                           703
    x38       c47                           633
    x38       c48                           268
    x38       c51                           627
    x38       c57                           827
    x38       c60                           369
    x39       obj1                            1
    x39       c3                            165
    x39       c7                            513
    x39       c9                            369
    x39       c13                           640
    x39       c19                           915
    x39       c28                           238
    x39       c36                           329
    x39       c55                           868
    x39       c60                           347
    x40       obj1                            1
    x40       c6                            925
    x40       c9                            868
    x40       c15                           611
    x40       c16                           713
    x40       c27                           574
    x40       c39                           128
    x40       c51                           986
    x40       c58                           245
    x40       c60                           478
    x41       obj1                            1
    x41       c1                            563
    x41       c16                           269
    x41       c28                           989
    x41       c37                           840
    x42       obj1                            1
    x42       c5                            194
    x42       c9                            172
    x42       c10                           101
    x42       c21                           775
    x42       c42                           622
    x42       c46                           960
    x42       c50                           653
    x43       obj1                            1
    x43       c46                           739
    x43       c59                           945
    x44       obj1                            1
    x44       c1                            822
    x44       c3                            824
    x44       c17                           371
    x44       c22                           597
    x44       c25                           964
    x44       c33                           897
    x44       c49                           589
    x44       c52                           560
    x45       obj1                            1
    x45       c4                            956
    x45       c25                           490
    x45       c27                           385
    x45       c48                           136
    x45       c49                           321
    x45       c56                           780
    x45       c57                           241
    x46       obj1                            1
    x46       c11                           858
    x46       c25                           810
    x46       c43                           610
    x46       c54                           712
    x46       c56                           590
    x46       c58                           495
    x46       c59                           732
    x47       obj1                            1
    x47       c14                           631
    x47       c24                           574
    x47       c31                           147
    x47       c34                           732
    x47       c40                           968
    x47       c54                           573
    x48       obj1                            1
    x48       c1                            380
    x48       c15                           804
    x48       c22                           796
    x48       c38                           307
    x48       c53                           450
    x49       obj1                            1
    x49       c32                           754
    x49       c41                           642
    x49       c45                           143
    x49       c46                           317
    x49       c47                           550
    x49       c56                           248
    x49       c60                           680
    x50       obj1                            1
    x50       c1                            151
    x50       c7                            302
    x50       c27                           606
    x50       c30                           634
    x50       c31                           765
    x50       c43                           259
    x50       c44                           669
    x50       c54                           404
    x50       c56                           114
    x51       obj1                            1
    x51       c25                           128
    x51       c45                           144
    x52       obj1                            1
    x52       c22                           866
    x52       c26                           295
    x52       c29                           580
    x52       c40                           888
    x52       c60                           673
    x53       obj1                            1
    x53       c8                            931
    x53       c28                           573
    x53       c34                           198
    x53       c57                           786
    x53       c59                           678
    x54       obj1                            1
    x54       c2                            739
    x54       c13                           248
    x54       c21                           182
    x54       c29                           150
    x54       c30                           706
    x54       c41                           541
    x54       c53                           135
    x54       c60                           105
    x55       obj1                            1
    x55       c9                            655
    x55       c11                           633
    x55       c27                           544
    x55       c39                           122
    x55       c41                           775
    x55       c52                           130
    x55       c60                           503
    x56       obj1                            1
    x56       c4                            852
    x56       c12                           430
    x56       c15                           861
    x56       c16                           176
    x56       c20                           895
    x56       c21                           391
    x56       c26                           451
    x56       c39                           261
    x56       c44                           705
    x56       c48                           990
    x57       obj1                            1
    x57       c3                            983
    x57       c4                            223
    x57       c6                            764
    x57       c10                           214
    x57       c37                           852
    x57       c40                           480
    x58       obj1                            1
    x58       c8                            481
    x58       c26                           761
    x58       c36                           205
    x58       c54                           850
    x59       obj1                            1
    x59       c12                           231
    x59       c17                           978
    x59       c33                           835
    x59       c46                           362
    x59       c48                           288
    x60       obj1                            1
    x60       c3                            626
    x60       c27                           375
    x60       c31                           780
    x60       c32                           896
    x60       c53                           569
    x60       c59                           564
    MARK0001  'MARKER'                 'INTEND'
RHS
    rhs       c1                           2479
    rhs       c2                           1381
    rhs       c3                           1979
    rhs       c4                           1501
    rhs       c5                            694
    rhs       c6                           1487
    rhs       c7                           1314
    rhs       c8                           1325
    rhs       c9                           1954
    rhs       c10                           858
    rhs       c11                          1940
    rhs       c12                          1535
    rhs       c13                           907
    rhs       c14                          1369
    rhs       c15                          2477
    rhs       c16                          2080
    rhs       c17                          2088
    rhs       c18                          1181
    rhs       c19                          2721
    rhs       c20                          1864
    rhs       c21                          1441
    rhs       c22                          2276
    rhs       c23                          1484
    rhs       c24                           731
    rhs       c25                          2249
    rhs       c26                          1601
    rhs       c27                          2459
    rhs       c28                          2311
    rhs       c29                           920
    rhs       c30                          2817
    rhs       c31                          1795
    rhs       c32                          2653
    rhs       c33                          1090
    rhs       c34                          1327
    rhs       c35                          1621
    rhs       c36                           597
    rhs       c37                          1883
    rhs       c38                          1559
    rhs       c39                          1481
    rhs       c40                          1168
    rhs       c41                           979
    rhs       c42                          2439
    rhs       c43                           535
    rhs       c44                          1091
    rhs       c45                          1970
    rhs       c46                          2147
    rhs       c47                          1907
    rhs       c48                           841
    rhs       c49                          1093
    rhs       c50                          1257
    rhs       c51                          1048
    rhs       c52                           498
    rhs       c53                          1303
    rhs       c54                          2512
    rhs       c55                          1743
    rhs       c56                          1617
    rhs       c57                          1276
    rhs       c58                          2551
    rhs       c59                          2386
    rhs       c60                          2009
BOUNDS
 LI bnd       x1        0
 LI bnd       x2        0
 LI bnd       x3        0
 LI bnd       x4        0
 LI bnd       x5        0
 LI bnd       x6        0
 LI bnd       x7        0
 LI bnd       x8        0
 LI bnd       x9        0
 LI bnd       x10       0
 LI bnd       x11       0
 LI bnd       x12       0
 LI bnd       x13       0
 LI bnd       x14       0
 LI bnd       x15       0
 LI bnd       x16       0
 LI bnd       x17       0
 LI bnd       x18       0
 LI bnd       x19       0
 LI bnd       x20       0
 LI bnd       x21       0
 LI bnd       x22       0
 LI bnd       x23       0
 LI bnd       x24       0
 LI bnd       x25       0
 LI bnd       x26       0
 LI bnd       x27       0
 LI bnd       x28       0
 LI bnd       x29       0
 LI bnd       x30       0
 LI bnd       x31       0
 LI bnd       x32       0
 LI bnd       x33       0
 LI bnd       x34       0
 LI bnd       x35       0
 LI bnd       x36       0
 LI bnd       x37       0
 LI bnd       x38       0
 LI bnd       x39       0
 LI bnd       x40       0
 LI bnd       x41       0
 LI bnd       x42       0
 LI bnd       x43       0
 LI bnd       x44       0
 LI bnd       x45       0
 LI bnd       x46       0
 LI bnd       x47       0
 LI bnd       x48       0
 LI bnd       x49       0
 LI bnd       x50       0
 LI bnd       x51       0
 LI bnd       x52       0
 LI bnd       x53       0
 LI bnd       x54       0
 LI bnd       x55       0
 LI bnd       x56       0
 LI bnd       x57       0
 LI bnd       x58       0
 LI bnd       x59       0
 LI bnd       x60       0
ENDATA
